c File: data_files/evolved_graphs/g0488.col
c
c Auto generated graph
c
p edge 100 1708
e 1 2
e 1 11
e 1 12
e 1 13
e 1 14
e 1 19
e 1 25
e 1 26
e 1 28
e 1 29
e 1 30
e 1 32
e 1 34
e 1 35
e 1 36
e 1 37
e 1 38
e 1 39
e 1 40
e 1 41
e 1 42
e 1 43
e 1 44
e 1 45
e 1 46
e 1 47
e 1 48
e 1 49
e 1 50
e 1 51
e 1 52
e 1 53
e 1 54
e 1 55
e 1 56
e 1 57
e 1 58
e 1 59
e 1 60
e 1 61
e 1 62
e 1 63
e 1 64
e 1 65
e 1 66
e 1 67
e 1 68
e 1 69
e 1 70
e 1 71
e 1 72
e 1 73
e 1 74
e 1 75
e 1 76
e 1 77
e 1 78
e 1 79
e 1 80
e 1 81
e 1 82
e 1 83
e 1 84
e 1 85
e 1 86
e 1 87
e 1 88
e 1 89
e 1 90
e 1 91
e 1 92
e 1 93
e 1 94
e 1 95
e 1 96
e 1 97
e 1 98
e 1 99
e 1 100
e 2 12
e 2 13
e 2 16
e 2 17
e 2 22
e 2 23
e 2 26
e 2 30
e 2 31
e 2 33
e 2 35
e 2 37
e 2 38
e 2 39
e 2 40
e 2 41
e 2 42
e 2 43
e 2 44
e 2 45
e 2 46
e 2 47
e 2 48
e 2 49
e 2 50
e 2 51
e 2 52
e 2 53
e 2 54
e 2 55
e 2 56
e 2 57
e 2 58
e 2 59
e 2 60
e 2 61
e 2 62
e 2 63
e 2 64
e 2 65
e 2 66
e 2 67
e 2 68
e 2 69
e 2 70
e 2 71
e 2 72
e 2 73
e 2 74
e 2 75
e 2 76
e 2 77
e 2 78
e 2 79
e 2 80
e 2 81
e 2 82
e 2 83
e 2 84
e 2 85
e 2 86
e 2 87
e 2 88
e 2 89
e 2 90
e 2 91
e 2 92
e 2 93
e 2 94
e 2 95
e 2 96
e 2 97
e 2 98
e 2 99
e 2 100
e 3 9
e 3 11
e 3 16
e 3 19
e 3 23
e 3 24
e 3 25
e 3 28
e 3 30
e 3 32
e 3 35
e 3 37
e 3 38
e 3 39
e 3 40
e 3 41
e 3 42
e 3 43
e 3 44
e 3 45
e 3 46
e 3 47
e 3 48
e 3 49
e 3 50
e 3 51
e 3 52
e 3 53
e 3 54
e 3 55
e 3 56
e 3 57
e 3 58
e 3 59
e 3 60
e 3 61
e 3 62
e 3 63
e 3 64
e 3 65
e 3 66
e 3 67
e 3 68
e 3 69
e 3 70
e 3 71
e 3 72
e 3 73
e 3 74
e 3 75
e 3 76
e 3 77
e 3 78
e 3 79
e 3 80
e 3 81
e 3 82
e 3 83
e 3 84
e 3 85
e 3 86
e 3 87
e 3 88
e 3 89
e 3 90
e 3 91
e 3 92
e 3 93
e 3 94
e 3 95
e 3 96
e 3 97
e 3 98
e 3 99
e 3 100
e 4 7
e 4 9
e 4 11
e 4 12
e 4 28
e 4 29
e 4 30
e 4 32
e 4 33
e 4 35
e 4 37
e 4 38
e 4 39
e 4 40
e 4 41
e 4 42
e 4 43
e 4 44
e 4 45
e 4 46
e 4 47
e 4 48
e 4 49
e 4 50
e 4 51
e 4 52
e 4 53
e 4 54
e 4 55
e 4 56
e 4 57
e 4 58
e 4 59
e 4 60
e 4 61
e 4 62
e 4 63
e 4 64
e 4 65
e 4 66
e 4 67
e 4 68
e 4 69
e 4 70
e 4 72
e 4 73
e 4 74
e 4 75
e 4 76
e 4 77
e 4 78
e 4 79
e 4 80
e 4 81
e 4 82
e 4 83
e 4 84
e 4 85
e 4 86
e 4 87
e 4 88
e 4 89
e 4 90
e 4 91
e 4 92
e 4 93
e 4 94
e 4 95
e 4 96
e 4 97
e 4 98
e 4 99
e 4 100
e 5 10
e 5 11
e 5 12
e 5 13
e 5 21
e 5 22
e 5 24
e 5 25
e 5 28
e 5 31
e 5 32
e 5 33
e 5 36
e 5 37
e 5 38
e 5 39
e 5 40
e 5 41
e 5 42
e 5 43
e 5 44
e 5 45
e 5 46
e 5 47
e 5 48
e 5 49
e 5 50
e 5 51
e 5 52
e 5 53
e 5 54
e 5 55
e 5 56
e 5 57
e 5 58
e 5 59
e 5 60
e 5 61
e 5 62
e 5 63
e 5 64
e 5 65
e 5 66
e 5 67
e 5 68
e 5 69
e 5 70
e 5 71
e 5 72
e 5 73
e 5 74
e 5 75
e 5 76
e 5 77
e 5 78
e 5 79
e 5 80
e 5 81
e 5 82
e 5 83
e 5 84
e 5 85
e 5 86
e 5 87
e 5 88
e 5 89
e 5 90
e 5 91
e 5 92
e 5 93
e 5 94
e 5 95
e 5 96
e 5 97
e 5 98
e 5 99
e 5 100
e 6 11
e 6 12
e 6 13
e 6 14
e 6 16
e 6 17
e 6 19
e 6 20
e 6 21
e 6 24
e 6 29
e 6 33
e 6 37
e 6 38
e 6 39
e 6 40
e 6 41
e 6 42
e 6 43
e 6 44
e 6 45
e 6 46
e 6 47
e 6 48
e 6 49
e 6 50
e 6 51
e 6 52
e 6 53
e 6 54
e 6 55
e 6 56
e 6 57
e 6 58
e 6 59
e 6 60
e 6 61
e 6 62
e 6 63
e 6 64
e 6 65
e 6 66
e 6 67
e 6 68
e 6 69
e 6 70
e 6 71
e 6 72
e 6 73
e 6 74
e 6 75
e 6 76
e 6 77
e 6 78
e 6 79
e 6 80
e 6 81
e 6 82
e 6 83
e 6 84
e 6 85
e 6 86
e 6 87
e 6 88
e 6 89
e 6 90
e 6 91
e 6 92
e 6 93
e 6 94
e 6 95
e 6 96
e 6 97
e 6 98
e 6 99
e 6 100
e 7 10
e 7 17
e 7 20
e 7 23
e 7 24
e 7 27
e 7 34
e 7 35
e 7 36
e 7 37
e 7 38
e 7 39
e 7 40
e 7 41
e 7 42
e 7 43
e 7 44
e 7 45
e 7 46
e 7 47
e 7 48
e 7 49
e 7 50
e 7 51
e 7 52
e 7 53
e 7 54
e 7 55
e 7 56
e 7 57
e 7 58
e 7 59
e 7 60
e 7 61
e 7 62
e 7 63
e 7 64
e 7 65
e 7 66
e 7 67
e 7 68
e 7 69
e 7 70
e 7 71
e 7 72
e 7 73
e 7 74
e 7 75
e 7 76
e 7 77
e 7 78
e 7 79
e 7 80
e 7 81
e 7 82
e 7 83
e 7 84
e 7 85
e 7 86
e 7 87
e 7 88
e 7 89
e 7 90
e 7 91
e 7 92
e 7 93
e 7 94
e 7 95
e 7 96
e 7 97
e 7 98
e 7 99
e 7 100
e 8 19
e 8 20
e 8 22
e 8 26
e 8 30
e 8 32
e 8 34
e 8 35
e 8 37
e 8 38
e 8 39
e 8 40
e 8 41
e 8 42
e 8 43
e 8 44
e 8 45
e 8 46
e 8 47
e 8 48
e 8 49
e 8 50
e 8 51
e 8 52
e 8 53
e 8 54
e 8 55
e 8 56
e 8 57
e 8 58
e 8 59
e 8 60
e 8 61
e 8 62
e 8 63
e 8 64
e 8 65
e 8 66
e 8 67
e 8 68
e 8 69
e 8 70
e 8 71
e 8 72
e 8 73
e 8 74
e 8 75
e 8 76
e 8 77
e 8 78
e 8 79
e 8 80
e 8 81
e 8 82
e 8 83
e 8 84
e 8 85
e 8 86
e 8 87
e 8 88
e 8 89
e 8 90
e 8 91
e 8 92
e 8 93
e 8 94
e 8 95
e 8 96
e 8 97
e 8 98
e 8 99
e 8 100
e 9 12
e 9 19
e 9 20
e 9 21
e 9 26
e 9 29
e 9 31
e 9 34
e 9 36
e 9 37
e 9 38
e 9 39
e 9 40
e 9 41
e 9 42
e 9 43
e 9 44
e 9 45
e 9 46
e 9 47
e 9 48
e 9 49
e 9 50
e 9 51
e 9 52
e 9 53
e 9 54
e 9 55
e 9 56
e 9 57
e 9 58
e 9 59
e 9 60
e 9 61
e 9 62
e 9 63
e 9 64
e 9 65
e 9 66
e 9 67
e 9 68
e 9 69
e 9 70
e 9 71
e 9 72
e 9 73
e 9 74
e 9 75
e 9 76
e 9 77
e 9 78
e 9 79
e 9 80
e 9 81
e 9 82
e 9 83
e 9 84
e 9 85
e 9 86
e 9 87
e 9 88
e 9 89
e 9 90
e 9 91
e 9 92
e 9 93
e 9 94
e 9 95
e 9 96
e 9 97
e 9 98
e 9 99
e 9 100
e 10 15
e 10 18
e 10 24
e 10 25
e 10 26
e 10 27
e 10 28
e 10 29
e 10 30
e 10 33
e 10 34
e 10 37
e 10 38
e 10 39
e 10 40
e 10 41
e 10 42
e 10 43
e 10 44
e 10 45
e 10 46
e 10 47
e 10 48
e 10 49
e 10 50
e 10 51
e 10 52
e 10 53
e 10 54
e 10 55
e 10 56
e 10 57
e 10 58
e 10 59
e 10 60
e 10 61
e 10 62
e 10 63
e 10 64
e 10 65
e 10 66
e 10 67
e 10 68
e 10 69
e 10 70
e 10 71
e 10 72
e 10 73
e 10 74
e 10 75
e 10 76
e 10 77
e 10 78
e 10 79
e 10 80
e 10 81
e 10 82
e 10 83
e 10 84
e 10 85
e 10 86
e 10 87
e 10 88
e 10 89
e 10 90
e 10 91
e 10 92
e 10 93
e 10 94
e 10 95
e 10 96
e 10 97
e 10 98
e 10 99
e 10 100
e 11 18
e 11 29
e 11 32
e 11 33
e 11 34
e 11 35
e 11 36
e 11 37
e 11 38
e 11 39
e 11 40
e 11 41
e 11 42
e 11 43
e 11 44
e 11 45
e 11 46
e 11 47
e 11 48
e 11 49
e 11 50
e 11 51
e 11 52
e 11 53
e 11 54
e 11 55
e 11 56
e 11 57
e 11 58
e 11 59
e 11 60
e 11 61
e 11 62
e 11 63
e 11 64
e 11 65
e 11 66
e 11 67
e 11 68
e 11 69
e 11 70
e 11 71
e 11 72
e 11 73
e 11 74
e 11 75
e 11 76
e 11 77
e 11 78
e 11 79
e 11 80
e 11 81
e 11 82
e 11 83
e 11 84
e 11 85
e 11 86
e 11 87
e 11 88
e 11 89
e 11 90
e 11 91
e 11 92
e 11 93
e 11 94
e 11 95
e 11 97
e 11 98
e 11 99
e 12 19
e 12 21
e 12 27
e 12 29
e 12 31
e 12 32
e 12 33
e 12 34
e 12 35
e 12 36
e 12 37
e 12 38
e 12 39
e 12 40
e 12 41
e 12 42
e 12 43
e 12 44
e 12 45
e 12 46
e 12 47
e 12 48
e 12 49
e 12 50
e 12 51
e 12 52
e 12 53
e 12 54
e 12 55
e 12 56
e 12 57
e 12 58
e 12 59
e 12 60
e 12 61
e 12 62
e 12 63
e 12 64
e 12 65
e 12 66
e 12 67
e 12 68
e 12 69
e 12 70
e 12 71
e 12 72
e 12 73
e 12 74
e 12 75
e 12 76
e 12 77
e 12 96
e 12 97
e 12 98
e 13 15
e 13 25
e 13 30
e 13 32
e 13 33
e 13 34
e 13 35
e 13 36
e 13 37
e 13 38
e 13 39
e 13 40
e 13 41
e 13 42
e 13 43
e 13 44
e 13 45
e 13 46
e 13 47
e 13 48
e 13 49
e 13 50
e 13 51
e 13 52
e 13 53
e 13 54
e 13 55
e 13 56
e 13 57
e 13 58
e 13 59
e 13 60
e 13 61
e 13 62
e 13 63
e 13 64
e 13 65
e 13 66
e 13 67
e 13 68
e 13 69
e 13 70
e 13 71
e 13 72
e 13 73
e 13 74
e 13 75
e 13 76
e 13 77
e 13 96
e 13 97
e 13 98
e 14 18
e 14 20
e 14 21
e 14 26
e 14 28
e 14 32
e 14 33
e 14 34
e 14 35
e 14 36
e 14 37
e 14 38
e 14 39
e 14 40
e 14 41
e 14 42
e 14 43
e 14 44
e 14 45
e 14 46
e 14 47
e 14 48
e 14 49
e 14 50
e 14 51
e 14 52
e 14 53
e 14 54
e 14 55
e 14 56
e 14 57
e 14 58
e 14 59
e 14 60
e 14 61
e 14 62
e 14 63
e 14 64
e 14 65
e 14 66
e 14 67
e 14 68
e 14 69
e 14 70
e 14 71
e 14 72
e 14 73
e 14 74
e 14 75
e 14 76
e 14 77
e 14 96
e 14 97
e 14 98
e 15 22
e 15 32
e 15 33
e 15 34
e 15 35
e 15 36
e 15 37
e 15 38
e 15 39
e 15 40
e 15 41
e 15 42
e 15 43
e 15 44
e 15 45
e 15 46
e 15 47
e 15 48
e 15 49
e 15 50
e 15 51
e 15 52
e 15 53
e 15 54
e 15 55
e 15 56
e 15 57
e 15 58
e 15 59
e 15 60
e 15 61
e 15 62
e 15 63
e 15 64
e 15 65
e 15 66
e 15 67
e 15 68
e 15 69
e 15 70
e 15 71
e 15 72
e 15 73
e 15 74
e 15 75
e 15 76
e 15 77
e 15 96
e 15 97
e 15 98
e 16 17
e 16 23
e 16 30
e 16 32
e 16 33
e 16 34
e 16 35
e 16 36
e 16 37
e 16 38
e 16 39
e 16 40
e 16 41
e 16 42
e 16 43
e 16 44
e 16 45
e 16 46
e 16 47
e 16 48
e 16 49
e 16 50
e 16 51
e 16 52
e 16 53
e 16 54
e 16 55
e 16 56
e 16 57
e 16 58
e 16 59
e 16 60
e 16 61
e 16 62
e 16 63
e 16 64
e 16 65
e 16 66
e 16 67
e 16 68
e 16 69
e 16 70
e 16 71
e 16 72
e 16 73
e 16 74
e 16 75
e 16 76
e 16 77
e 16 86
e 16 96
e 16 97
e 16 98
e 17 23
e 17 25
e 17 32
e 17 33
e 17 34
e 17 35
e 17 36
e 17 37
e 17 38
e 17 39
e 17 40
e 17 41
e 17 42
e 17 43
e 17 44
e 17 45
e 17 46
e 17 47
e 17 48
e 17 49
e 17 50
e 17 51
e 17 52
e 17 53
e 17 54
e 17 55
e 17 56
e 17 57
e 17 58
e 17 59
e 17 60
e 17 61
e 17 62
e 17 63
e 17 64
e 17 65
e 17 66
e 17 96
e 17 97
e 17 98
e 18 24
e 18 25
e 18 32
e 18 33
e 18 34
e 18 35
e 18 36
e 18 37
e 18 38
e 18 39
e 18 40
e 18 41
e 18 42
e 18 43
e 18 44
e 18 45
e 18 46
e 18 47
e 18 48
e 18 49
e 18 50
e 18 51
e 18 52
e 18 53
e 18 54
e 18 55
e 18 56
e 18 57
e 18 58
e 18 59
e 18 60
e 18 61
e 18 62
e 18 63
e 18 64
e 18 65
e 18 66
e 18 96
e 18 97
e 18 98
e 19 21
e 19 24
e 19 26
e 19 32
e 19 33
e 19 34
e 19 35
e 19 36
e 19 37
e 19 38
e 19 39
e 19 40
e 19 41
e 19 42
e 19 43
e 19 44
e 19 45
e 19 46
e 19 47
e 19 48
e 19 49
e 19 50
e 19 51
e 19 52
e 19 53
e 19 54
e 19 55
e 19 56
e 19 57
e 19 58
e 19 59
e 19 60
e 19 61
e 19 62
e 19 63
e 19 64
e 19 65
e 19 66
e 19 96
e 19 97
e 19 98
e 20 32
e 20 33
e 20 34
e 20 35
e 20 36
e 20 37
e 20 38
e 20 39
e 20 40
e 20 41
e 20 42
e 20 43
e 20 44
e 20 45
e 20 46
e 20 47
e 20 48
e 20 49
e 20 50
e 20 51
e 20 52
e 20 53
e 20 54
e 20 55
e 20 56
e 20 57
e 20 58
e 20 59
e 20 60
e 20 61
e 20 62
e 20 63
e 20 64
e 20 65
e 20 66
e 20 96
e 20 97
e 20 98
e 21 22
e 21 32
e 21 33
e 21 34
e 21 35
e 21 36
e 21 37
e 21 38
e 21 39
e 21 40
e 21 41
e 21 42
e 21 43
e 21 44
e 21 45
e 21 46
e 21 47
e 21 48
e 21 49
e 21 50
e 21 51
e 21 52
e 21 53
e 21 54
e 21 55
e 21 56
e 21 57
e 21 58
e 21 59
e 21 60
e 21 61
e 21 62
e 21 63
e 21 64
e 21 65
e 21 66
e 21 96
e 21 97
e 21 98
e 22 31
e 22 32
e 22 33
e 22 34
e 22 35
e 22 36
e 22 37
e 22 38
e 22 39
e 22 40
e 22 41
e 22 42
e 22 43
e 22 44
e 22 45
e 22 46
e 22 47
e 22 48
e 22 49
e 22 50
e 22 51
e 22 52
e 22 53
e 22 54
e 22 55
e 22 56
e 22 57
e 22 58
e 22 59
e 22 60
e 22 61
e 22 62
e 22 63
e 22 64
e 22 65
e 22 66
e 22 89
e 22 96
e 22 97
e 22 98
e 23 25
e 23 39
e 23 45
e 23 47
e 23 49
e 23 53
e 23 55
e 23 61
e 23 62
e 23 67
e 23 68
e 23 73
e 23 79
e 23 81
e 23 83
e 23 86
e 23 87
e 23 88
e 23 90
e 23 98
e 24 25
e 24 35
e 24 37
e 24 41
e 24 54
e 24 56
e 24 57
e 24 58
e 24 59
e 24 60
e 24 62
e 24 63
e 24 67
e 24 68
e 24 77
e 24 78
e 24 83
e 24 84
e 24 86
e 24 87
e 24 91
e 24 96
e 24 97
e 24 100
e 25 32
e 25 45
e 25 49
e 25 52
e 25 53
e 25 55
e 25 59
e 25 60
e 25 62
e 25 64
e 25 65
e 25 67
e 25 68
e 25 69
e 25 71
e 25 73
e 25 74
e 25 88
e 25 89
e 25 93
e 25 96
e 25 99
e 25 100
e 26 27
e 26 35
e 26 36
e 26 37
e 26 38
e 26 41
e 26 43
e 26 44
e 26 47
e 26 48
e 26 55
e 26 64
e 26 67
e 26 70
e 26 73
e 26 87
e 26 96
e 26 97
e 26 99
e 27 40
e 27 41
e 27 48
e 27 53
e 27 54
e 27 56
e 27 57
e 27 62
e 27 64
e 27 66
e 27 67
e 27 68
e 27 72
e 27 73
e 27 74
e 27 78
e 27 81
e 27 82
e 27 83
e 27 93
e 27 96
e 27 98
e 28 31
e 28 38
e 28 41
e 28 44
e 28 47
e 28 50
e 28 52
e 28 54
e 28 61
e 28 64
e 28 65
e 28 67
e 28 69
e 28 71
e 28 72
e 28 78
e 28 80
e 28 81
e 28 84
e 28 85
e 28 87
e 28 88
e 28 89
e 28 90
e 28 100
e 29 30
e 29 32
e 29 40
e 29 41
e 29 42
e 29 44
e 29 46
e 29 47
e 29 49
e 29 51
e 29 54
e 29 62
e 29 65
e 29 68
e 29 71
e 29 72
e 29 73
e 29 74
e 29 75
e 29 78
e 29 89
e 29 92
e 29 94
e 29 95
e 29 99
e 30 32
e 30 38
e 30 42
e 30 44
e 30 45
e 30 46
e 30 49
e 30 55
e 30 56
e 30 59
e 30 62
e 30 64
e 30 65
e 30 66
e 30 69
e 30 71
e 30 73
e 30 79
e 30 81
e 30 82
e 30 90
e 30 92
e 30 93
e 30 94
e 30 98
e 30 100
e 31 33
e 31 42
e 31 46
e 31 47
e 31 48
e 31 50
e 31 51
e 31 53
e 31 56
e 31 57
e 31 58
e 31 62
e 31 66
e 31 68
e 31 69
e 31 70
e 31 74
e 31 79
e 31 82
e 31 87
e 31 91
e 31 97
e 31 99
e 32 40
e 32 52
e 32 58
e 32 63
e 32 64
e 32 65
e 32 66
e 32 67
e 33 37
e 33 43
e 33 45
e 33 46
e 33 61
e 34 48
e 34 59
e 34 68
e 34 69
e 34 71
e 35 51
e 35 52
e 35 69
e 36 38
e 36 41
e 36 46
e 36 47
e 36 57
e 36 62
e 37 43
e 37 44
e 37 72
e 38 39
e 38 100
e 39 40
e 39 41
e 39 44
e 39 53
e 39 58
e 39 60
e 40 47
e 40 64
e 41 43
e 41 50
e 41 54
e 41 57
e 41 73
e 42 60
e 42 68
e 43 44
e 43 48
e 43 54
e 43 55
e 43 56
e 44 52
e 44 60
e 44 63
e 44 73
e 45 52
e 45 55
e 45 57
e 45 58
e 45 60
e 45 61
e 45 69
e 45 70
e 46 52
e 46 55
e 46 57
e 46 65
e 46 70
e 46 73
e 47 59
e 47 60
e 47 69
e 47 70
e 47 73
e 48 49
e 48 51
e 48 56
e 48 62
e 48 68
e 49 52
e 49 70
e 50 51
e 50 54
e 50 66
e 51 55
e 51 68
e 51 71
e 52 58
e 52 62
e 52 67
e 53 68
e 53 72
e 53 74
e 55 63
e 55 64
e 55 65
e 55 68
e 55 69
e 56 60
e 56 62
e 56 65
e 56 67
e 56 72
e 57 63
e 57 68
e 57 70
e 58 59
e 58 60
e 58 64
e 58 72
e 59 62
e 59 69
e 60 66
e 60 70
e 61 68
e 61 72
e 62 69
e 62 71
e 63 69
e 64 68
e 64 71
e 64 72
e 65 70
e 66 67
e 66 68
e 67 74
e 67 95
e 68 95
e 69 74
e 69 95
e 70 95
e 70 100
e 71 73
e 71 95
e 72 74
e 72 95
e 72 99
e 73 76
e 73 95
e 74 95
e 75 81
e 75 85
e 75 89
e 75 91
e 76 84
e 76 93
e 77 86
e 77 90
e 77 96
e 78 82
e 78 90
e 78 97
e 78 100
e 79 81
e 79 82
e 79 88
e 79 93
e 79 96
e 79 99
e 80 86
e 80 100
e 81 82
e 81 94
e 82 87
e 82 93
e 83 97
e 84 88
e 85 92
e 86 89
e 86 90
e 86 94
e 87 90
e 88 93
e 88 94
e 88 98
e 89 91
e 91 94
e 91 97
e 92 99
e 93 100
e 94 96
e 96 100
